147
1000000
505757
609743
366397
542051
330009
24366
504100
628545
14692
560918
613455
390257
86338
340641
498858
7425
313402
347065
659359
453314
177559
171066
291211
15730
589535
643304
357073
165460
404136
475137
120958
78519
114060
372441
378080
216380
558369
19584
201525
585862
215632
13202
198547
361724
331528
3255
246632
206693
557918
4455
410237
96617
632807
14800
321117
237184
107326
495900
557689
90946
49072
64276
55592
678883
255064
156898
441631
22283
312348
382613
344056
19470
516184
413133
166611
608433
49097
324680
368770
634753
202696
442311
205399
175031
281288
388356
50224
315827
83
446460
47491
86057
2376
442082
139374
184255
180680
485615
457949
238013
203872
161408
230358
116826
228860
320991
82260
376682
631147
275865
291045
289425
478781
633603
248326
361639
611644
116595
126799
617994
399408
566779
633176
31496
703106
73080
21126
544518
282585
546686
282202
130290
414138
652816
311853
494243
80831
352744
84095
561348
733891
281793
269064
82320
129929
343909
116150
